
  32    4
  10   10   10   10

   0   0   0   0   0   5 2 3 4 5 6 
   2  10  10  10  10   7 13 12 11 10 9 8 7 
   9  10  10  10  10   7 13 12 11 10 9 8 7 
   1  10  10  10  10   6 12 11 10 9 8 7 
   9  10  10  10  10   5 13 11 10 8 7 
   2  10  10  10  10   4 11 9 8 7 
  10  10  10  10  10   7 20 19 18 17 16 15 14 
   2  10  10  10  10   7 20 19 18 17 16 15 14 
   2  10  10  10  10   7 20 19 18 17 16 15 14 
   9  10  10  10  10   7 20 19 18 17 16 15 14 
   4  10  10  10  10   6 20 19 18 16 15 14 
   6  10  10  10  10   6 20 19 18 17 16 14 
   3  10  10  10  10   4 19 18 15 14 
   8  10  10  10  10   5 25 24 23 22 21 
   8  10  10  10  10   5 25 24 23 22 21 
   5  10  10  10  10   4 25 24 22 21 
   9  10  10  10  10   4 25 24 23 21 
   5  10  10  10  10   3 25 23 21 
  10  10  10  10  10   3 23 22 21 
   1  10  10  10  10   2 22 21 
   1  10  10  10  10   3 28 27 26 
   5  10  10  10  10   3 28 27 26 
   5  10  10  10  10   3 28 27 26 
   2  10  10  10  10   3 28 27 26 
   7  10  10  10  10   3 31 28 27 
   9  10  10  10  10   3 31 30 29 
   5  10  10  10  10   2 30 29 
   8  10  10  10  10   2 30 29 
   1  10  10  10  10   1 32
   4  10  10  10  10   1 32
   8  10  10  10  10   1 32
   0   0   0   0   0   0 
